91 6 51 33 40 41 38 43 60 11 14 74 16 15 78 27 8 83 36 61 24 53 71 31 29 95 70 30 54 81 5 1 92 20 65 13 57 28 48 87 44 66 77 4 64 2 35 67 7 85 37 39 76 32 9 88 94 84 69 52 90 59 55 58 99 45 86 26 42 10 34 96 25 93 75 73 62 18 56 89 72 12 68 0 97 3 46 47 22 49 50 82 21 80 79 19 23 98 17 63 

